p cep 160 4015
88 147
74 106
21 28
22 154
80 125
95 101
8 63
99 126
63 76
29 44
33 41
1 64
92 135
59 131
78 86
27 122
104 130
12 59
103 122
15 30
17 64
42 88
5 84
61 151
80 155
63 151
10 97
30 100
13 20
108 150
96 123
60 81
116 118
45 78
65 154
138 141
85 87
32 77
88 154
57 59
93 151
95 98
99 103
7 22
100 127
11 83
29 37
104 122
33 34
16 38
34 144
36 41
2 73
131 160
78 89
61 63
26 67
79 85
84 128
11 160
17 57
76 87
5 93
66 93
49 51
